32	4
10	10	10	10
0	0	0	0	0	5	2	3	4	8	7
9	0	1	3	1	3	5	9	13
2	3	4	3	5	4	6	9	10	14
5	3	4	3	5	3	6	10	14
1	7	6	7	4	8	10	11	12	14	17	19	20	25
6	0	0	3	2	6	11	12	17	19	20	25
2	3	4	0	4	5	11	17	20	25	31
2	7	5	4	5	5	11	17	19	25	31
6	2	4	0	4	1	11
3	3	5	6	5	6	16	18	23	24	28	29
5	4	6	8	2	3	15	18	23
1	3	0	1	2	3	15	23	31
3	3	5	4	5	5	20	22	23	27	28
7	2	4	0	6	4	18	22	23	28
9	5	2	6	4	4	16	24	28	29
9	4	0	6	4	4	21	22	27	30
2	7	6	7	4	3	22	24	29
4	0	2	5	3	2	21	27
4	5	4	8	2	4	21	22	27	28
2	3	6	7	0	1	21
4	0	4	3	5	1	26
6	4	4	5	0	1	26
5	5	8	2	3	1	26
10	2	6	1	0	1	27
1	4	0	2	5	1	26
1	1	2	6	7	1	32
10	6	2	2	5	1	32
9	6	8	2	2	1	32
6	4	0	3	4	1	32
2	7	2	3	3	1	32
7	6	4	0	5	1	32
0	0	0	0	0	0
